(assert (= #b111111110110 (bvand #b111111110110 #b000000010100)))
(assert (= #b0000000000000000000000000000000000000000000000000000000000000000000000001111101100001111010011010110 (bvand #b0000000000000000000000000000000000000000000000000000000000000000000000001111101100001111010011010110 #b0000000000000000000000000000000000000000000000000000000000000000000000000000000000000000000000000000)))
(exit)